words_hard_train/8187.qaiger
aag 100 16 0 1 84
2
4
8
12
16
18
22
26
32
40
102
116
134
148
166
178
201
6 3 5
10 6 9
14 10 13
20 16 18
24 20 22
28 24 26
30 14 28
34 29 33
36 28 32
38 35 37
42 39 41
44 31 43
46 30 42
48 45 47
50 13 23
52 51 20
54 52 8
56 12 17
58 57 25
60 59 4
62 55 61
64 2 13
66 65 26
68 13 27
70 69 21
72 67 71
74 72 22
76 23 27
78 17 19
80 76 79
82 75 81
84 62 83
86 76 78
88 87 32
90 86 33
92 89 91
94 84 92
96 49 95
98 85 93
100 97 99
104 91 102
106 90 103
108 105 107
110 37 103
112 36 102
114 111 113
118 115 117
120 47 119
122 46 118
124 121 123
126 108 124
128 101 127
130 109 125
132 129 131
136 107 134
138 106 135
140 137 139
142 113 135
144 112 134
146 143 145
150 147 149
152 123 151
154 122 150
156 153 155
158 140 156
160 133 159
162 141 157
164 161 163
168 138 167
170 139 166
172 169 171
174 164 173
176 144 167
180 177 179
182 145 166
184 180 183
186 154 185
188 174 186
190 175 187
192 165 172
194 155 184
196 193 195
198 190 197
200 189 199
i0 1 x1[0]
i1 1 x1[2]
i2 1 x1[1]
i3 1 x1[3]
i4 2 y1[0]
i5 2 y1[1]
i6 2 y1[2]
i7 2 y1[3]
i8 2 y1[4]
i9 1 x1[4]
i10 2 y1[5]
i11 1 x1[5]
i12 2 y1[6]
i13 1 x1[6]
i14 2 y1[7]
i15 1 x1[7]
o0 bv[0]
c
simplified
  >
    or
      1 x1
      add
        2 y1
        1
    unary minus
      2 y1
