words_hard_train/8187.qaiger.qdimacs
p cnf 100 253
a 1 2 4 6 74 20 89 58 0
e 3 5 7 8 9 10 11 12 13 14 15 16 17 18 19 21 22 23 24 25 26 27 28 29 30 31 32 33 34 35 36 37 38 39 40 41 42 43 44 45 46 47 48 49 50 51 52 53 54 55 56 57 59 60 61 62 63 64 65 66 67 68 69 70 71 72 73 75 76 77 78 79 80 81 82 83 84 85 86 87 88 90 91 92 93 94 95 96 97 98 99 100 0
1 2 3 0
-1 -3 0
-2 -3 0
-3 4 5 0
3 -5 0
-4 -5 0
-5 6 7 0
5 -7 0
-6 -7 0
-8 -9 10 0
8 -10 0
9 -10 0
-10 -11 12 0
10 -12 0
11 -12 0
-12 -13 14 0
12 -14 0
13 -14 0
-7 -14 15 0
7 -15 0
14 -15 0
14 16 17 0
-14 -17 0
-16 -17 0
-14 -16 18 0
14 -18 0
16 -18 0
17 18 19 0
-17 -19 0
-18 -19 0
19 20 21 0
-19 -21 0
-20 -21 0
15 21 22 0
-15 -22 0
-21 -22 0
-15 -21 23 0
15 -23 0
21 -23 0
22 23 24 0
-22 -24 0
-23 -24 0
6 11 25 0
-6 -25 0
-11 -25 0
25 -10 26 0
-25 -26 0
10 -26 0
-26 -4 27 0
26 -27 0
4 -27 0
-6 8 28 0
6 -28 0
-8 -28 0
28 12 29 0
-28 -29 0
-12 -29 0
29 -2 30 0
-29 -30 0
2 -30 0
27 30 31 0
-27 -31 0
-30 -31 0
-1 6 32 0
1 -32 0
-6 -32 0
32 -13 33 0
-32 -33 0
13 -33 0
6 13 34 0
-6 -34 0
-13 -34 0
34 10 35 0
-34 -35 0
-10 -35 0
33 35 36 0
-33 -36 0
-35 -36 0
-36 -11 37 0
36 -37 0
11 -37 0
11 13 38 0
-11 -38 0
-13 -38 0
8 9 39 0
-8 -39 0
-9 -39 0
-38 39 40 0
38 -40 0
-39 -40 0
37 40 41 0
-37 -41 0
-40 -41 0
-31 41 42 0
31 -42 0
-41 -42 0
-38 -39 43 0
38 -43 0
39 -43 0
43 -16 44 0
-43 -44 0
16 -44 0
-43 16 45 0
43 -45 0
-16 -45 0
44 45 46 0
-44 -46 0
-45 -46 0
-42 -46 47 0
42 -47 0
46 -47 0
24 47 48 0
-24 -48 0
-47 -48 0
42 46 49 0
-42 -49 0
-46 -49 0
48 49 50 0
-48 -50 0
-49 -50 0
45 -51 52 0
-45 -52 0
51 -52 0
-45 51 53 0
45 -53 0
-51 -53 0
52 53 54 0
-52 -54 0
-53 -54 0
18 51 55 0
-18 -55 0
-51 -55 0
-18 -51 56 0
18 -56 0
51 -56 0
55 56 57 0
-55 -57 0
-56 -57 0
57 58 59 0
-57 -59 0
-58 -59 0
23 59 60 0
-23 -60 0
-59 -60 0
-23 -59 61 0
23 -61 0
59 -61 0
60 61 62 0
-60 -62 0
-61 -62 0
-54 -62 63 0
54 -63 0
62 -63 0
50 63 64 0
-50 -64 0
-63 -64 0
54 62 65 0
-54 -65 0
-62 -65 0
64 65 66 0
-64 -66 0
-65 -66 0
53 -67 68 0
-53 -68 0
67 -68 0
-53 67 69 0
53 -69 0
-67 -69 0
68 69 70 0
-68 -70 0
-69 -70 0
56 67 71 0
-56 -71 0
-67 -71 0
-56 -67 72 0
56 -72 0
67 -72 0
71 72 73 0
-71 -73 0
-72 -73 0
73 74 75 0
-73 -75 0
-74 -75 0
61 75 76 0
-61 -76 0
-75 -76 0
-61 -75 77 0
61 -77 0
75 -77 0
76 77 78 0
-76 -78 0
-77 -78 0
-70 -78 79 0
70 -79 0
78 -79 0
66 79 80 0
-66 -80 0
-79 -80 0
70 78 81 0
-70 -81 0
-78 -81 0
80 81 82 0
-80 -82 0
-81 -82 0
-69 83 84 0
69 -84 0
-83 -84 0
69 -83 85 0
-69 -85 0
83 -85 0
84 85 86 0
-84 -86 0
-85 -86 0
-82 86 87 0
82 -87 0
-86 -87 0
-72 83 88 0
72 -88 0
-83 -88 0
88 89 90 0
-88 -90 0
-89 -90 0
72 -83 91 0
-72 -91 0
83 -91 0
-90 91 92 0
90 -92 0
-91 -92 0
-77 92 93 0
77 -93 0
-92 -93 0
-87 -93 94 0
87 -94 0
93 -94 0
87 93 95 0
-87 -95 0
-93 -95 0
82 -86 96 0
-82 -96 0
86 -96 0
77 -92 97 0
-77 -97 0
92 -97 0
96 97 98 0
-96 -98 0
-97 -98 0
-95 98 99 0
95 -99 0
-98 -99 0
94 99 100 0
-94 -100 0
-99 -100 0
-100 0
